(set-logic QF_S)
(declare-const x String)
(assert (str.in.re x (re.inter  (re.++ (re.opt (re.range "\u{31}" "\u{39}") ) (re.++ (re.opt (re.range "\u{31}" "\u{39}") ) (re.opt (re.range "\u{31}" "\u{39}") )))  (re.++ (re.range "\u{30}" "\u{39}") (re.++ (re.range "\u{30}" "\u{39}") (re.range "\u{30}" "\u{39}"))) )))
(check-sat)
(get-model)